# Solution for model sdp
# Objective value = 26.75
x[0.0,6.75] 3
x[21.75,9.0] 3
x[24.0,6.75] 0
x[45.75,9.0] 3
x[48.0,6.75] 0
x[69.75,9.0] 3
x[72.0,6.75] 0
x[93.75,9.0] 3
x[96.0,6.75] 0
x[117.75,9.0] 3
x[120.0,6.75] 0
x[141.75,9.0] 3
x[144.0,6.75] 0
x[165.75,2.25] 3
y[0.0,6.75] 1
y[21.75,9.0] 1
y[24.0,6.75] 0
y[45.75,9.0] 1
y[48.0,6.75] 0
y[69.75,9.0] 1
y[72.0,6.75] 0
y[93.75,9.0] 1
y[96.0,6.75] 0
y[117.75,9.0] 1
y[120.0,6.75] 0
y[141.75,9.0] 1
y[144.0,6.75] 0
y[165.75,2.25] 1
mu[0.0] 0
mu[0.25] 0
mu[0.5] 0
mu[0.75] 0
mu[1.0] 0
mu[1.25] 0
mu[1.5] 0
mu[1.75] 0
mu[2.0] 0
mu[2.25] 0
mu[2.5] 0
mu[2.75] 0
mu[3.0] 0
mu[3.25] 0
mu[3.5] 0
mu[3.75] 0
mu[4.0] 0
mu[4.25] 0
mu[4.5] 0
mu[4.75] 0
mu[5.0] 0
mu[5.25] 0
mu[5.5] 0
mu[5.75] 0
mu[6.0] 0
mu[6.25] 0
mu[6.5] 0
mu[21.75] 0
mu[22.0] 0
mu[22.25] 0
mu[22.5] 0
mu[22.75] 0
mu[23.0] 0
mu[23.25] 0
mu[23.5] 0
mu[23.75] 0
mu[24.0] 0
mu[24.25] 0
mu[24.5] 0
mu[24.75] 0
mu[25.0] 0
mu[25.25] 0
mu[25.5] 0
mu[25.75] 0
mu[26.0] 0
mu[26.25] 0
mu[26.5] 0
mu[26.75] 0
mu[27.0] 0
mu[27.25] 0
mu[27.5] 0
mu[27.75] 0
mu[28.0] 0
mu[28.25] 0
mu[28.5] 0
mu[28.75] 0
mu[29.0] 0
mu[29.25] 0
mu[29.5] 0
mu[29.75] 0
mu[30.0] 0
mu[30.25] 0
mu[30.5] 0
mu[45.75] 0
mu[46.0] 0
mu[46.25] 0
mu[46.5] 0
mu[46.75] 0
mu[47.0] 0
mu[47.25] 0
mu[47.5] 0
mu[47.75] 0
mu[48.0] 0
mu[48.25] 0
mu[48.5] 0
mu[48.75] 0
mu[49.0] 0
mu[49.25] 0
mu[49.5] 0
mu[49.75] 0
mu[50.0] 0
mu[50.25] 0
mu[50.5] 0
mu[50.75] 0
mu[51.0] 0
mu[51.25] 0
mu[51.5] 0
mu[51.75] 0
mu[52.0] 0
mu[52.25] 0
mu[52.5] 0
mu[52.75] 0
mu[53.0] 0
mu[53.25] 0
mu[53.5] 0
mu[53.75] 0
mu[54.0] 0
mu[54.25] 0
mu[54.5] 0
mu[69.75] 0
mu[70.0] 0
mu[70.25] 0
mu[70.5] 0
mu[70.75] 0
mu[71.0] 0
mu[71.25] 0
mu[71.5] 0
mu[71.75] 0
mu[72.0] 0
mu[72.25] 0
mu[72.5] 0
mu[72.75] 0
mu[73.0] 0
mu[73.25] 0
mu[73.5] 0
mu[73.75] 0
mu[74.0] 0
mu[74.25] 0
mu[74.5] 0
mu[74.75] 0
mu[75.0] 0
mu[75.25] 0
mu[75.5] 0
mu[75.75] 0
mu[76.0] 0
mu[76.25] 0
mu[76.5] 0
mu[76.75] 0
mu[77.0] 0
mu[77.25] 0
mu[77.5] 0
mu[77.75] 0
mu[78.0] 0
mu[78.25] 0
mu[78.5] 0
mu[93.75] 0
mu[94.0] 0
mu[94.25] 0
mu[94.5] 0
mu[94.75] 0
mu[95.0] 0
mu[95.25] 0
mu[95.5] 0
mu[95.75] 0
mu[96.0] 0
mu[96.25] 0
mu[96.5] 0
mu[96.75] 0
mu[97.0] 0
mu[97.25] 0
mu[97.5] 0
mu[97.75] 0
mu[98.0] 0
mu[98.25] 0
mu[98.5] 0
mu[98.75] 0
mu[99.0] 0
mu[99.25] 0
mu[99.5] 0
mu[99.75] 0
mu[100.0] 0
mu[100.25] 0
mu[100.5] 0
mu[100.75] 0
mu[101.0] 0
mu[101.25] 0
mu[101.5] 0
mu[101.75] 0
mu[102.0] 0
mu[102.25] 0
mu[102.5] 0
mu[117.75] 0
mu[118.0] 0
mu[118.25] 0
mu[118.5] 0
mu[118.75] 0
mu[119.0] 0
mu[119.25] 0
mu[119.5] 0
mu[119.75] 0
mu[120.0] 0
mu[120.25] 0
mu[120.5] 0
mu[120.75] 0
mu[121.0] 0
mu[121.25] 0
mu[121.5] 0
mu[121.75] 0
mu[122.0] 0
mu[122.25] 0
mu[122.5] 0
mu[122.75] 0
mu[123.0] 0
mu[123.25] 0
mu[123.5] 0
mu[123.75] 0
mu[124.0] 0
mu[124.25] 0
mu[124.5] 0
mu[124.75] 0
mu[125.0] 0
mu[125.25] 0
mu[125.5] 0
mu[125.75] 0
mu[126.0] 0
mu[126.25] 0
mu[126.5] 0
mu[141.75] 0
mu[142.0] 0
mu[142.25] 0
mu[142.5] 0
mu[142.75] 0
mu[143.0] 0
mu[143.25] 0
mu[143.5] 0
mu[143.75] 0
mu[144.0] 0
mu[144.25] 0
mu[144.5] 0
mu[144.75] 0
mu[145.0] 0
mu[145.25] 0
mu[145.5] 0
mu[145.75] 0
mu[146.0] 0
mu[146.25] 0
mu[146.5] 0
mu[146.75] 0
mu[147.0] 0
mu[147.25] 0
mu[147.5] 0
mu[147.75] 0
mu[148.0] 0
mu[148.25] 0
mu[148.5] 0
mu[148.75] 0
mu[149.0] 0
mu[149.25] 0
mu[149.5] 0
mu[149.75] 0
mu[150.0] 0
mu[150.25] 0
mu[150.5] 0
mu[165.75] 0
mu[166.0] 0
mu[166.25] 0
mu[166.5] 0
mu[166.75] 0
mu[167.0] 0
mu[167.25] 0
mu[167.5] 0
mu[167.75] 0
delta_plus[0,0.0] 0
delta_plus[0,0.25] 0
delta_plus[0,0.5] 0
delta_plus[0,0.75] 0
delta_plus[0,1.0] 0
delta_plus[0,1.25] 0
delta_plus[0,1.5] 0
delta_plus[0,1.75] 0
delta_plus[0,2.0] 0
delta_plus[0,2.25] 0
delta_plus[0,2.5] 0
delta_plus[0,2.75] 0
delta_plus[0,3.0] 0
delta_plus[0,3.25] 0
delta_plus[0,3.5] 0
delta_plus[0,3.75] 0
delta_plus[0,4.0] 0
delta_plus[0,4.25] 0
delta_plus[0,4.5] 0
delta_plus[0,4.75] 0
delta_plus[0,5.0] 0
delta_plus[0,5.25] 0
delta_plus[0,5.5] 0
delta_plus[0,5.75] 0
delta_plus[0,6.0] 0
delta_plus[0,6.25] 0
delta_plus[0,6.5] 0
delta_plus[0,21.75] 0
delta_plus[0,22.0] 0
delta_plus[0,22.25] 0
delta_plus[0,22.5] 0
delta_plus[0,22.75] 0
delta_plus[0,23.0] 0
delta_plus[0,23.25] 0
delta_plus[0,23.5] 0
delta_plus[0,23.75] 0
delta_plus[0,24.0] 0
delta_plus[0,24.25] 0
delta_plus[0,24.5] 0
delta_plus[0,24.75] 0
delta_plus[0,25.0] 0
delta_plus[0,25.25] 0
delta_plus[0,25.5] 0
delta_plus[0,25.75] 0
delta_plus[0,26.0] 0
delta_plus[0,26.25] 0
delta_plus[0,26.5] 0
delta_plus[0,26.75] 0
delta_plus[0,27.0] 0
delta_plus[0,27.25] 0
delta_plus[0,27.5] 0
delta_plus[0,27.75] 0
delta_plus[0,28.0] 0
delta_plus[0,28.25] 0
delta_plus[0,28.5] 0
delta_plus[0,28.75] 0
delta_plus[0,29.0] 0
delta_plus[0,29.25] 0
delta_plus[0,29.5] 0
delta_plus[0,29.75] 0
delta_plus[0,30.0] 0
delta_plus[0,30.25] 0
delta_plus[0,30.5] 0
delta_plus[0,45.75] 0
delta_plus[0,46.0] 0
delta_plus[0,46.25] 0
delta_plus[0,46.5] 0
delta_plus[0,46.75] 0
delta_plus[0,47.0] 0
delta_plus[0,47.25] 0
delta_plus[0,47.5] 0
delta_plus[0,47.75] 0
delta_plus[0,48.0] 0
delta_plus[0,48.25] 0
delta_plus[0,48.5] 0
delta_plus[0,48.75] 0
delta_plus[0,49.0] 0
delta_plus[0,49.25] 0
delta_plus[0,49.5] 0
delta_plus[0,49.75] 0
delta_plus[0,50.0] 0
delta_plus[0,50.25] 0
delta_plus[0,50.5] 0
delta_plus[0,50.75] 0
delta_plus[0,51.0] 0
delta_plus[0,51.25] 0
delta_plus[0,51.5] 0
delta_plus[0,51.75] 0
delta_plus[0,52.0] 0
delta_plus[0,52.25] 0
delta_plus[0,52.5] 0
delta_plus[0,52.75] 0
delta_plus[0,53.0] 0
delta_plus[0,53.25] 0
delta_plus[0,53.5] 0
delta_plus[0,53.75] 0
delta_plus[0,54.0] 0
delta_plus[0,54.25] 0
delta_plus[0,54.5] 0
delta_plus[0,69.75] 0
delta_plus[0,70.0] 0
delta_plus[0,70.25] 0
delta_plus[0,70.5] 0
delta_plus[0,70.75] 0
delta_plus[0,71.0] 0
delta_plus[0,71.25] 0
delta_plus[0,71.5] 0
delta_plus[0,71.75] 0
delta_plus[0,72.0] 0
delta_plus[0,72.25] 0
delta_plus[0,72.5] 0
delta_plus[0,72.75] 0
delta_plus[0,73.0] 0
delta_plus[0,73.25] 0
delta_plus[0,73.5] 0
delta_plus[0,73.75] 0
delta_plus[0,74.0] 0
delta_plus[0,74.25] 0
delta_plus[0,74.5] 0
delta_plus[0,74.75] 0
delta_plus[0,75.0] 0
delta_plus[0,75.25] 0
delta_plus[0,75.5] 0
delta_plus[0,75.75] 0
delta_plus[0,76.0] 0
delta_plus[0,76.25] 0
delta_plus[0,76.5] 0
delta_plus[0,76.75] 0
delta_plus[0,77.0] 0
delta_plus[0,77.25] 0
delta_plus[0,77.5] 0
delta_plus[0,77.75] 0
delta_plus[0,78.0] 0
delta_plus[0,78.25] 0
delta_plus[0,78.5] 0
delta_plus[0,93.75] 0
delta_plus[0,94.0] 0
delta_plus[0,94.25] 0
delta_plus[0,94.5] 0
delta_plus[0,94.75] 0
delta_plus[0,95.0] 0
delta_plus[0,95.25] 0
delta_plus[0,95.5] 0
delta_plus[0,95.75] 0
delta_plus[0,96.0] 0
delta_plus[0,96.25] 0
delta_plus[0,96.5] 0
delta_plus[0,96.75] 0
delta_plus[0,97.0] 0
delta_plus[0,97.25] 0
delta_plus[0,97.5] 0
delta_plus[0,97.75] 0
delta_plus[0,98.0] 0
delta_plus[0,98.25] 0
delta_plus[0,98.5] 0
delta_plus[0,98.75] 0
delta_plus[0,99.0] 0
delta_plus[0,99.25] 0
delta_plus[0,99.5] 0
delta_plus[0,99.75] 0
delta_plus[0,100.0] 0
delta_plus[0,100.25] 0
delta_plus[0,100.5] 0
delta_plus[0,100.75] 0
delta_plus[0,101.0] 0
delta_plus[0,101.25] 0
delta_plus[0,101.5] 0
delta_plus[0,101.75] 0
delta_plus[0,102.0] 0
delta_plus[0,102.25] 0
delta_plus[0,102.5] 0
delta_plus[0,117.75] 0
delta_plus[0,118.0] 0
delta_plus[0,118.25] 0
delta_plus[0,118.5] 0
delta_plus[0,118.75] 0
delta_plus[0,119.0] 0
delta_plus[0,119.25] 0
delta_plus[0,119.5] 0
delta_plus[0,119.75] 0
delta_plus[0,120.0] 0
delta_plus[0,120.25] 0
delta_plus[0,120.5] 0
delta_plus[0,120.75] 0
delta_plus[0,121.0] 0
delta_plus[0,121.25] 0
delta_plus[0,121.5] 0
delta_plus[0,121.75] 0
delta_plus[0,122.0] 0
delta_plus[0,122.25] 0
delta_plus[0,122.5] 0
delta_plus[0,122.75] 0
delta_plus[0,123.0] 0
delta_plus[0,123.25] 0
delta_plus[0,123.5] 0
delta_plus[0,123.75] 0
delta_plus[0,124.0] 0
delta_plus[0,124.25] 0
delta_plus[0,124.5] 0
delta_plus[0,124.75] 0
delta_plus[0,125.0] 0
delta_plus[0,125.25] 0
delta_plus[0,125.5] 0
delta_plus[0,125.75] 0
delta_plus[0,126.0] 0
delta_plus[0,126.25] 0
delta_plus[0,126.5] 0
delta_plus[0,141.75] 0
delta_plus[0,142.0] 0
delta_plus[0,142.25] 0
delta_plus[0,142.5] 0
delta_plus[0,142.75] 0
delta_plus[0,143.0] 0
delta_plus[0,143.25] 0
delta_plus[0,143.5] 0
delta_plus[0,143.75] 0
delta_plus[0,144.0] 0
delta_plus[0,144.25] 0
delta_plus[0,144.5] 0
delta_plus[0,144.75] 0
delta_plus[0,145.0] 0
delta_plus[0,145.25] 0
delta_plus[0,145.5] 0
delta_plus[0,145.75] 0
delta_plus[0,146.0] 0
delta_plus[0,146.25] 0
delta_plus[0,146.5] 0
delta_plus[0,146.75] 0
delta_plus[0,147.0] 0
delta_plus[0,147.25] 0
delta_plus[0,147.5] 0
delta_plus[0,147.75] 0
delta_plus[0,148.0] 0
delta_plus[0,148.25] 0
delta_plus[0,148.5] 0
delta_plus[0,148.75] 0
delta_plus[0,149.0] 0
delta_plus[0,149.25] 0
delta_plus[0,149.5] 0
delta_plus[0,149.75] 0
delta_plus[0,150.0] 0
delta_plus[0,150.25] 0
delta_plus[0,150.5] 0
delta_plus[0,165.75] 0
delta_plus[0,166.0] 0
delta_plus[0,166.25] 0
delta_plus[0,166.5] 0
delta_plus[0,166.75] 0
delta_plus[0,167.0] 0
delta_plus[0,167.25] 0
delta_plus[0,167.5] 0
delta_plus[0,167.75] 0
delta_minus[0,0.0] 0
delta_minus[0,0.25] 0
delta_minus[0,0.5] 0
delta_minus[0,0.75] 0
delta_minus[0,1.0] 0
delta_minus[0,1.25] 0
delta_minus[0,1.5] 0
delta_minus[0,1.75] 0
delta_minus[0,2.0] 0
delta_minus[0,2.25] 0
delta_minus[0,2.5] 0
delta_minus[0,2.75] 0
delta_minus[0,3.0] 0
delta_minus[0,3.25] 0
delta_minus[0,3.5] 0
delta_minus[0,3.75] 0
delta_minus[0,4.0] 0
delta_minus[0,4.25] 0
delta_minus[0,4.5] 0
delta_minus[0,4.75] 0
delta_minus[0,5.0] 0
delta_minus[0,5.25] 0
delta_minus[0,5.5] 0
delta_minus[0,5.75] 0
delta_minus[0,6.0] 0
delta_minus[0,6.25] 0
delta_minus[0,6.5] 0
delta_minus[0,21.75] 0
delta_minus[0,22.0] 0
delta_minus[0,22.25] 0
delta_minus[0,22.5] 0
delta_minus[0,22.75] 0
delta_minus[0,23.0] 0
delta_minus[0,23.25] 0
delta_minus[0,23.5] 0
delta_minus[0,23.75] 0
delta_minus[0,24.0] 0
delta_minus[0,24.25] 0
delta_minus[0,24.5] 0
delta_minus[0,24.75] 0
delta_minus[0,25.0] 0
delta_minus[0,25.25] 0
delta_minus[0,25.5] 0
delta_minus[0,25.75] 0
delta_minus[0,26.0] 0
delta_minus[0,26.25] 0
delta_minus[0,26.5] 0
delta_minus[0,26.75] 0
delta_minus[0,27.0] 0
delta_minus[0,27.25] 0
delta_minus[0,27.5] 0
delta_minus[0,27.75] 0
delta_minus[0,28.0] 0
delta_minus[0,28.25] 0
delta_minus[0,28.5] 0
delta_minus[0,28.75] 0
delta_minus[0,29.0] 0
delta_minus[0,29.25] 0
delta_minus[0,29.5] 0
delta_minus[0,29.75] 0
delta_minus[0,30.0] 0
delta_minus[0,30.25] 0
delta_minus[0,30.5] 0
delta_minus[0,45.75] 0
delta_minus[0,46.0] 0
delta_minus[0,46.25] 0
delta_minus[0,46.5] 0
delta_minus[0,46.75] 0
delta_minus[0,47.0] 0
delta_minus[0,47.25] 0
delta_minus[0,47.5] 0
delta_minus[0,47.75] 0
delta_minus[0,48.0] 0
delta_minus[0,48.25] 0
delta_minus[0,48.5] 0
delta_minus[0,48.75] 0
delta_minus[0,49.0] 0
delta_minus[0,49.25] 0
delta_minus[0,49.5] 0
delta_minus[0,49.75] 0
delta_minus[0,50.0] 0
delta_minus[0,50.25] 0
delta_minus[0,50.5] 0
delta_minus[0,50.75] 0
delta_minus[0,51.0] 0
delta_minus[0,51.25] 0
delta_minus[0,51.5] 0
delta_minus[0,51.75] 0
delta_minus[0,52.0] 0
delta_minus[0,52.25] 0
delta_minus[0,52.5] 0
delta_minus[0,52.75] 0
delta_minus[0,53.0] 0
delta_minus[0,53.25] 0
delta_minus[0,53.5] 0
delta_minus[0,53.75] 0
delta_minus[0,54.0] 0
delta_minus[0,54.25] 0
delta_minus[0,54.5] 0
delta_minus[0,69.75] 0
delta_minus[0,70.0] 0
delta_minus[0,70.25] 0
delta_minus[0,70.5] 0
delta_minus[0,70.75] 0
delta_minus[0,71.0] 0
delta_minus[0,71.25] 0
delta_minus[0,71.5] 0
delta_minus[0,71.75] 0
delta_minus[0,72.0] 0
delta_minus[0,72.25] 0
delta_minus[0,72.5] 0
delta_minus[0,72.75] 0
delta_minus[0,73.0] 0
delta_minus[0,73.25] 0
delta_minus[0,73.5] 0
delta_minus[0,73.75] 0
delta_minus[0,74.0] 0
delta_minus[0,74.25] 0
delta_minus[0,74.5] 0
delta_minus[0,74.75] 0
delta_minus[0,75.0] 0
delta_minus[0,75.25] 0
delta_minus[0,75.5] 0
delta_minus[0,75.75] 0
delta_minus[0,76.0] 0
delta_minus[0,76.25] 0
delta_minus[0,76.5] 0
delta_minus[0,76.75] 0
delta_minus[0,77.0] 0
delta_minus[0,77.25] 0
delta_minus[0,77.5] 0
delta_minus[0,77.75] 0
delta_minus[0,78.0] 0
delta_minus[0,78.25] 0
delta_minus[0,78.5] 0
delta_minus[0,93.75] 0
delta_minus[0,94.0] 0
delta_minus[0,94.25] 0
delta_minus[0,94.5] 0
delta_minus[0,94.75] 0
delta_minus[0,95.0] 0
delta_minus[0,95.25] 0
delta_minus[0,95.5] 0
delta_minus[0,95.75] 0
delta_minus[0,96.0] 0
delta_minus[0,96.25] 0
delta_minus[0,96.5] 0
delta_minus[0,96.75] 0
delta_minus[0,97.0] 0
delta_minus[0,97.25] 0
delta_minus[0,97.5] 0
delta_minus[0,97.75] 0
delta_minus[0,98.0] 0
delta_minus[0,98.25] 0
delta_minus[0,98.5] 0
delta_minus[0,98.75] 0
delta_minus[0,99.0] 0
delta_minus[0,99.25] 0
delta_minus[0,99.5] 0
delta_minus[0,99.75] 0
delta_minus[0,100.0] 0
delta_minus[0,100.25] 0
delta_minus[0,100.5] 0
delta_minus[0,100.75] 0
delta_minus[0,101.0] 0
delta_minus[0,101.25] 0
delta_minus[0,101.5] 0
delta_minus[0,101.75] 0
delta_minus[0,102.0] 0
delta_minus[0,102.25] 0
delta_minus[0,102.5] 0
delta_minus[0,117.75] 0
delta_minus[0,118.0] 0
delta_minus[0,118.25] 0
delta_minus[0,118.5] 0
delta_minus[0,118.75] 0
delta_minus[0,119.0] 0
delta_minus[0,119.25] 0
delta_minus[0,119.5] 0
delta_minus[0,119.75] 0
delta_minus[0,120.0] 0
delta_minus[0,120.25] 0
delta_minus[0,120.5] 0
delta_minus[0,120.75] 0
delta_minus[0,121.0] 0
delta_minus[0,121.25] 0
delta_minus[0,121.5] 0
delta_minus[0,121.75] 0
delta_minus[0,122.0] 0
delta_minus[0,122.25] 0
delta_minus[0,122.5] 0
delta_minus[0,122.75] 0
delta_minus[0,123.0] 0
delta_minus[0,123.25] 0
delta_minus[0,123.5] 0
delta_minus[0,123.75] 0
delta_minus[0,124.0] 0
delta_minus[0,124.25] 0
delta_minus[0,124.5] 0
delta_minus[0,124.75] 0
delta_minus[0,125.0] 0
delta_minus[0,125.25] 0
delta_minus[0,125.5] 0
delta_minus[0,125.75] 0
delta_minus[0,126.0] 0
delta_minus[0,126.25] 0
delta_minus[0,126.5] 0
delta_minus[0,141.75] 0
delta_minus[0,142.0] 0
delta_minus[0,142.25] 0
delta_minus[0,142.5] 0
delta_minus[0,142.75] 0
delta_minus[0,143.0] 0
delta_minus[0,143.25] 0
delta_minus[0,143.5] 0
delta_minus[0,143.75] 0
delta_minus[0,144.0] 0
delta_minus[0,144.25] 0
delta_minus[0,144.5] 0
delta_minus[0,144.75] 0
delta_minus[0,145.0] 0
delta_minus[0,145.25] 0
delta_minus[0,145.5] 0
delta_minus[0,145.75] 0
delta_minus[0,146.0] 0
delta_minus[0,146.25] 0
delta_minus[0,146.5] 0
delta_minus[0,146.75] 0
delta_minus[0,147.0] 0
delta_minus[0,147.25] 0
delta_minus[0,147.5] 0
delta_minus[0,147.75] 0
delta_minus[0,148.0] 0
delta_minus[0,148.25] 0
delta_minus[0,148.5] 0
delta_minus[0,148.75] 0
delta_minus[0,149.0] 0
delta_minus[0,149.25] 0
delta_minus[0,149.5] 0
delta_minus[0,149.75] 0
delta_minus[0,150.0] 0
delta_minus[0,150.25] 0
delta_minus[0,150.5] 0
delta_minus[0,165.75] 0
delta_minus[0,166.0] 0
delta_minus[0,166.25] 0
delta_minus[0,166.5] 0
delta_minus[0,166.75] 0
delta_minus[0,167.0] 0
delta_minus[0,167.25] 0
delta_minus[0,167.5] 0
delta_minus[0,167.75] 0
rho_short[165.75,2.25] 3.75
